
Gurobi 9.0.1 (linux64) logging started Thu Apr 30 05:57:56 2020

Gurobi Optimizer version 9.0.1 build v9.0.1rc0 (linux64)
Optimize a model with 896 rows, 990 columns and 6984 nonzeros
Model fingerprint: 0x323bf188
Variable types: 0 continuous, 990 integer (980 binary)
Coefficient statistics:
  Matrix range     [1e+00, 5e+00]
  Objective range  [2e+00, 1e+02]
  Bounds range     [1e+00, 1e+00]
  RHS range        [1e+00, 1e+00]

User MIP start produced solution with objective 501 (0.00s)
Loaded user MIP start with objective 501

Presolve removed 260 rows and 384 columns
Presolve time: 0.05s
Presolved: 636 rows, 606 columns, 4806 nonzeros
Variable types: 0 continuous, 606 integer (598 binary)

Root relaxation: objective 4.150853e+02, 516 iterations, 0.03 seconds

    Nodes    |    Current Node    |     Objective Bounds      |     Work
 Expl Unexpl |  Obj  Depth IntInf | Incumbent    BestBd   Gap | It/Node Time

     0     0  415.08535    0  243  501.00000  415.08535  17.1%     -    0s
     0     0  436.76413    0  233  501.00000  436.76413  12.8%     -    0s
     0     0  438.08808    0  251  501.00000  438.08808  12.6%     -    0s
     0     0  438.09242    0  250  501.00000  438.09242  12.6%     -    0s
     0     0  443.11055    0  256  501.00000  443.11055  11.6%     -    0s
     0     0  443.95402    0  253  501.00000  443.95402  11.4%     -    0s
     0     0  443.96636    0  239  501.00000  443.96636  11.4%     -    0s
     0     0  443.96636    0  239  501.00000  443.96636  11.4%     -    0s
     0     0  452.20237    0  250  501.00000  452.20237  9.74%     -    0s
     0     0  452.45260    0  246  501.00000  452.45260  9.69%     -    0s
     0     0  452.49935    0  249  501.00000  452.49935  9.68%     -    0s
     0     0  452.49968    0  249  501.00000  452.49968  9.68%     -    0s
     0     0  457.93113    0  264  501.00000  457.93113  8.60%     -    0s
     0     0  458.45626    0  253  501.00000  458.45626  8.49%     -    0s
     0     0  458.77829    0  262  501.00000  458.77829  8.43%     -    0s
     0     0  458.83794    0  255  501.00000  458.83794  8.42%     -    0s
     0     0  458.84829    0  258  501.00000  458.84829  8.41%     -    0s
     0     0  461.69847    0  259  501.00000  461.69847  7.84%     -    0s
     0     0  462.03320    0  258  501.00000  462.03320  7.78%     -    0s
     0     0  462.13112    0  264  501.00000  462.13112  7.76%     -    0s
     0     0  462.13875    0  266  501.00000  462.13875  7.76%     -    0s
     0     0  463.58574    0  270  501.00000  463.58574  7.47%     -    1s
     0     0  463.60565    0  271  501.00000  463.60565  7.46%     -    1s
     0     0  464.71406    0  269  501.00000  464.71406  7.24%     -    1s
     0     0  464.77952    0  270  501.00000  464.77952  7.23%     -    1s
     0     0  464.79897    0  270  501.00000  464.79897  7.23%     -    1s
     0     0  465.69858    0  282  501.00000  465.69858  7.05%     -    1s
     0     0  465.86680    0  285  501.00000  465.86680  7.01%     -    1s
     0     0  465.87734    0  286  501.00000  465.87734  7.01%     -    1s
     0     0  466.04175    0  284  501.00000  466.04175  6.98%     -    1s
     0     0  466.04175    0  284  501.00000  466.04175  6.98%     -    1s
     0     0  466.05072    0  240  501.00000  466.05072  6.98%     -    1s
     0     0  466.05072    0  243  501.00000  466.05072  6.98%     -    1s
     0     0  466.05072    0  246  501.00000  466.05072  6.98%     -    1s
     0     0  466.05072    0  250  501.00000  466.05072  6.98%     -    1s
     0     0  466.05072    0  250  501.00000  466.05072  6.98%     -    1s
     0     0  466.05072    0  274  501.00000  466.05072  6.98%     -    1s
     0     0  466.05072    0  273  501.00000  466.05072  6.98%     -    1s
     0     0  466.05072    0  273  501.00000  466.05072  6.98%     -    1s
     0     0  467.57338    0  277  501.00000  467.57338  6.67%     -    2s
     0     0  468.11999    0  278  501.00000  468.11999  6.56%     -    2s
     0     0  468.12766    0  280  501.00000  468.12766  6.56%     -    2s
     0     0  469.90549    0  274  501.00000  469.90549  6.21%     -    2s
     0     0  470.61591    0  271  501.00000  470.61591  6.06%     -    2s
     0     0  470.65718    0  281  501.00000  470.65718  6.06%     -    2s
     0     0  470.86173    0  285  501.00000  470.86173  6.02%     -    2s
     0     0  470.95527    0  277  501.00000  470.95527  6.00%     -    2s
     0     0  471.03693    0  285  501.00000  471.03693  5.98%     -    2s
     0     0  471.05493    0  283  501.00000  471.05493  5.98%     -    2s
     0     0  472.36217    0  272  501.00000  472.36217  5.72%     -    2s
     0     0  472.61841    0  272  501.00000  472.61841  5.66%     -    2s
     0     0  472.64846    0  280  501.00000  472.64846  5.66%     -    2s
     0     0  473.30110    0  281  501.00000  473.30110  5.53%     -    2s
     0     0  473.34147    0  285  501.00000  473.34147  5.52%     -    2s
     0     0  473.43729    0  282  501.00000  473.43729  5.50%     -    2s
     0     0  473.43729    0  282  501.00000  473.43729  5.50%     -    2s
     0     2  473.49589    0  282  501.00000  473.49589  5.49%     -    2s

Cutting planes:
  Gomory: 1
  Cover: 1
  Clique: 1
  MIR: 23
  GUB cover: 1
  Zero half: 22
  RLT: 118

Explored 97 nodes (17173 simplex iterations) in 3.77 seconds
Thread count was 1 (of 40 available processors)

Solution count 1: 501 

Optimal solution found (tolerance 1.00e-04)
Best objective 5.010000000000e+02, best bound 5.010000000000e+02, gap 0.0000%

User-callback calls 1167, time in user-callback 0.00 sec
